# 3-d simulation of MAPbI3
units metal
dimension	3
boundary	p p p
atom_style	full

variable a index 1
variable T index 300.00
variable lT index 50.00

read_restart init_restart/restart.$a
log            logfile/log.lowT.$a

neighbor	2.0 bin
neigh_modify	one 10000 check yes delay 0

# Pb - 1 / I - 2 / Cs - 3 
pair_style     lj/cut/coul/long 10.0 10.0

# set epsilon, sigma
pair_coeff              1 1 0.001086   3.210 # Pb
pair_coeff              1 2 0.008330   3.612 # Pb-I
pair_coeff              1 3 0.009161 3.397 # Pb-Cs

pair_coeff              2 2 0.06389 4.014 # I
pair_coeff              2 3 0.070267 3.799 # I-Cs
pair_coeff              3 3 0.07728  3.584 # Cs

kspace_style pppm 1e-5		# Electrostatics 
dielectric 1.0

# define groups
group PbX type 1 2
group Cs type 3

#velocity all create ${T} 32156

#fix 	     0 PbX langevin ${T} ${T} 100.0 48279
#fix	     0 PbX nve
fix     		1 all npt temp ${T} ${lT} 100 aniso 1.0 1.0 400 mtk yes
#fix	     	1 PbX npt temp ${T} ${T} 500 iso 1.0 1.0 1000

#compute rT all temp/com
#fix_modify 2 temp rT

# Run
timestep		0.001 # 0.001 ps = 1.0 fs
thermo		5000
#compute_modify thermo_temp dynamic yes

#compute 1 all property/atom xu yu zu q
#compute 5 all com
#variable mux atom q*x
#variable muy atom q*y
#variable muz atom q*z
#compute 2 all reduce sum v_mux
#compute 3 all reduce sum v_muy
#compute 4 all reduce sum v_muz

thermo_style custom step temp pe etotal press vol #c_2 c_3 c_4

# equi
dump    1 all custom 1000 trajectory/dump.chk.$a type xu yu zu q
dump_modify   1 sort id

run   300000

undump 1
unfix 1

fix       2 all langevin ${lT} ${lT} 100.0 48279
fix       3 all nve

dump    2 all custom 500 trajectory/dump.traj.$a type xu yu zu q
dump_modify   2 sort id

run 500000
write_restart restart/restart.lowT.$a
#write_restart restart/restart.lowT



